NAME : pairs_raw.txt.668557.tour
COMMENT : Length = 668557
COMMENT : Found by LKH [Keld Helsgaun] Tue Sep 17 09:53:52 2013
TYPE : TOUR
DIMENSION : 69
TOUR_SECTION
1
21
4
25
63
66
56
46
9
65
23
6
58
50
34
41
49
15
45
55
14
53
57
26
52
69
68
32
10
40
48
64
3
5
24
16
28
8
17
36
38
54
13
18
39
20
35
12
22
37
31
7
2
11
33
60
43
47
62
51
42
61
59
44
29
27
67
19
30
-1
EOF
